//First Small Instance: 
Params = <10,5,9,6,1>;
Workers = { 
<1,1>,
<2,3>,
<3,2>,
<4,1>,
<5,2>,
<6,2>
};
Ops = { 
<1,1,1>,
<2,1,2>,
<3,1,3>,
<4,1,4>,
<5,1,5>,
<6,1,6>,
<11,2,1>,
<12,2,2>,
<13,2,3>,
<14,2,4>,
<15,2,5>,
<16,2,6>,
<17,2,7>,
<21,3,1>,
<22,3,2>,
<23,3,3>,
<24,3,4>,
<25,3,5>,
<26,3,6>,
<27,3,7>,
<31,4,1>,
<32,4,2>,
<33,4,3>,
<34,4,4>,
<35,4,5>,
<36,4,6>,
<37,4,7>,
<39,4,8>,
<40,4,9>,
<41,5,1>,
<42,5,2>,
<43,5,3>,
<44,5,4>,
<45,5,5>,
<46,5,6>,
<47,5,7>,
<49,5,8>,
<50,5,9>,
<51,6,1>,
<52,6,2>,
<53,6,3>,
<54,6,4>,
<55,6,5>,
<56,6,6>,
<58,6,7>,
<59,6,8>,
<60,6,9>,
<61,7,1>,
<62,7,2>,
<63,7,3>,
<64,7,4>,
<65,7,5>,
<66,7,6>,
<70,7,7>,
<71,8,1>,
<72,8,2>,
<73,8,3>,
<74,8,4>,
<75,8,5>,
<76,8,6>,
<77,8,7>,
<79,8,8>,
<81,9,1>,
<82,9,2>,
<83,9,3>,
<84,9,4>,
<85,9,5>,
<86,9,6>,
<87,9,7>,
<88,9,8>,
<90,9,9>,
<91,10,1>,
<92,10,2>,
<93,10,3>,
<94,10,4>,
<95,10,5>,
<96,10,6>,
<97,10,7>
 };
Modes = { 
<1,1,9,1>,
<1,1,9,3>,
<1,1,9,4>,
<1,1,9,6>,
<1,2,9,1>,
<1,2,9,3>,
<1,2,9,4>,
<1,2,9,6>,
<2,3,2,2>,
<2,3,2,5>,
<2,4,2,2>,
<2,4,2,5>,
<3,5,9,1>,
<3,5,9,3>,
<3,5,9,6>,
<3,6,9,1>,
<3,6,9,3>,
<3,6,9,6>,
<4,7,6,2>,
<4,7,6,5>,
<4,8,6,2>,
<4,8,6,5>,
<5,9,1,2>,
<5,9,1,3>,
<5,9,1,4>,
<5,9,1,6>,
<6,1,1,1>,
<6,1,1,3>,
<6,1,1,4>,
<6,1,1,6>,
<6,2,1,1>,
<6,2,1,3>,
<6,2,1,4>,
<6,2,1,6>,
<11,1,8,1>,
<11,1,8,3>,
<11,1,8,4>,
<11,1,8,6>,
<11,2,8,1>,
<11,2,8,3>,
<11,2,8,4>,
<11,2,8,6>,
<12,3,9,2>,
<12,3,9,5>,
<12,4,9,2>,
<12,4,9,5>,
<13,5,10,1>,
<13,5,10,3>,
<13,5,10,6>,
<13,6,10,1>,
<13,6,10,3>,
<13,6,10,6>,
<14,7,4,2>,
<14,7,4,5>,
<14,8,4,2>,
<14,8,4,5>,
<15,9,8,2>,
<15,9,8,3>,
<15,9,8,4>,
<15,9,8,6>,
<16,1,10,1>,
<16,1,10,3>,
<16,1,10,4>,
<16,1,10,6>,
<16,2,10,1>,
<16,2,10,3>,
<16,2,10,4>,
<16,2,10,6>,
<17,3,5,2>,
<17,3,5,5>,
<17,4,5,2>,
<17,4,5,5>,
<21,1,2,1>,
<21,1,2,3>,
<21,1,2,4>,
<21,1,2,6>,
<21,2,2,1>,
<21,2,2,3>,
<21,2,2,4>,
<21,2,2,6>,
<22,3,8,2>,
<22,3,8,5>,
<22,4,8,2>,
<22,4,8,5>,
<23,5,5,1>,
<23,5,5,3>,
<23,5,5,6>,
<23,6,5,1>,
<23,6,5,3>,
<23,6,5,6>,
<24,7,8,2>,
<24,7,8,5>,
<24,8,8,2>,
<24,8,8,5>,
<25,9,3,2>,
<25,9,3,3>,
<25,9,3,4>,
<25,9,3,6>,
<26,1,10,1>,
<26,1,10,3>,
<26,1,10,4>,
<26,1,10,6>,
<26,2,10,1>,
<26,2,10,3>,
<26,2,10,4>,
<26,2,10,6>,
<27,3,4,2>,
<27,3,4,5>,
<27,4,4,2>,
<27,4,4,5>,
<31,1,3,1>,
<31,1,3,3>,
<31,1,3,4>,
<31,1,3,6>,
<31,2,3,1>,
<31,2,3,3>,
<31,2,3,4>,
<31,2,3,6>,
<32,3,9,2>,
<32,3,9,5>,
<32,4,9,2>,
<32,4,9,5>,
<33,5,8,1>,
<33,5,8,3>,
<33,5,8,6>,
<33,6,8,1>,
<33,6,8,3>,
<33,6,8,6>,
<34,7,6,2>,
<34,7,6,5>,
<34,8,6,2>,
<34,8,6,5>,
<35,9,8,2>,
<35,9,8,3>,
<35,9,8,4>,
<35,9,8,6>,
<36,1,4,1>,
<36,1,4,3>,
<36,1,4,4>,
<36,1,4,6>,
<36,2,4,1>,
<36,2,4,3>,
<36,2,4,4>,
<36,2,4,6>,
<37,3,5,2>,
<37,3,5,5>,
<37,4,5,2>,
<37,4,5,5>,
<39,7,2,2>,
<39,7,2,5>,
<39,8,2,2>,
<39,8,2,5>,
<40,9,10,2>,
<40,9,10,3>,
<40,9,10,4>,
<40,9,10,6>,
<41,1,1,1>,
<41,1,1,3>,
<41,1,1,4>,
<41,1,1,6>,
<41,2,1,1>,
<41,2,1,3>,
<41,2,1,4>,
<41,2,1,6>,
<42,3,7,2>,
<42,3,7,5>,
<42,4,7,2>,
<42,4,7,5>,
<43,5,4,1>,
<43,5,4,3>,
<43,5,4,6>,
<43,6,4,1>,
<43,6,4,3>,
<43,6,4,6>,
<44,7,9,2>,
<44,7,9,5>,
<44,8,9,2>,
<44,8,9,5>,
<45,9,4,2>,
<45,9,4,3>,
<45,9,4,4>,
<45,9,4,6>,
<46,1,8,1>,
<46,1,8,3>,
<46,1,8,4>,
<46,1,8,6>,
<46,2,8,1>,
<46,2,8,3>,
<46,2,8,4>,
<46,2,8,6>,
<47,3,10,2>,
<47,3,10,5>,
<47,4,10,2>,
<47,4,10,5>,
<49,7,6,2>,
<49,7,6,5>,
<49,8,6,2>,
<49,8,6,5>,
<50,9,3,2>,
<50,9,3,3>,
<50,9,3,4>,
<50,9,3,6>,
<51,1,7,1>,
<51,1,7,3>,
<51,1,7,4>,
<51,1,7,6>,
<51,2,7,1>,
<51,2,7,3>,
<51,2,7,4>,
<51,2,7,6>,
<52,3,6,2>,
<52,3,6,5>,
<52,4,6,2>,
<52,4,6,5>,
<53,5,3,1>,
<53,5,3,3>,
<53,5,3,6>,
<53,6,3,1>,
<53,6,3,3>,
<53,6,3,6>,
<54,7,5,2>,
<54,7,5,5>,
<54,8,5,2>,
<54,8,5,5>,
<55,9,2,2>,
<55,9,2,3>,
<55,9,2,4>,
<55,9,2,6>,
<56,1,6,1>,
<56,1,6,3>,
<56,1,6,4>,
<56,1,6,6>,
<56,2,6,1>,
<56,2,6,3>,
<56,2,6,4>,
<56,2,6,6>,
<58,5,4,1>,
<58,5,4,3>,
<58,5,4,6>,
<58,6,4,1>,
<58,6,4,3>,
<58,6,4,6>,
<59,7,1,2>,
<59,7,1,5>,
<59,8,1,2>,
<59,8,1,5>,
<60,9,1,2>,
<60,9,1,3>,
<60,9,1,4>,
<60,9,1,6>,
<61,1,8,1>,
<61,1,8,3>,
<61,1,8,4>,
<61,1,8,6>,
<61,2,8,1>,
<61,2,8,3>,
<61,2,8,4>,
<61,2,8,6>,
<62,3,1,2>,
<62,3,1,5>,
<62,4,1,2>,
<62,4,1,5>,
<63,5,7,1>,
<63,5,7,3>,
<63,5,7,6>,
<63,6,7,1>,
<63,6,7,3>,
<63,6,7,6>,
<64,7,1,2>,
<64,7,1,5>,
<64,8,1,2>,
<64,8,1,5>,
<65,9,8,2>,
<65,9,8,3>,
<65,9,8,4>,
<65,9,8,6>,
<66,1,6,1>,
<66,1,6,3>,
<66,1,6,4>,
<66,1,6,6>,
<66,2,6,1>,
<66,2,6,3>,
<66,2,6,4>,
<66,2,6,6>,
<70,9,10,2>,
<70,9,10,3>,
<70,9,10,4>,
<70,9,10,6>,
<71,1,4,1>,
<71,1,4,3>,
<71,1,4,4>,
<71,1,4,6>,
<71,2,4,1>,
<71,2,4,3>,
<71,2,4,4>,
<71,2,4,6>,
<72,3,3,2>,
<72,3,3,5>,
<72,4,3,2>,
<72,4,3,5>,
<73,5,6,1>,
<73,5,6,3>,
<73,5,6,6>,
<73,6,6,1>,
<73,6,6,3>,
<73,6,6,6>,
<74,7,5,2>,
<74,7,5,5>,
<74,8,5,2>,
<74,8,5,5>,
<75,9,2,2>,
<75,9,2,3>,
<75,9,2,4>,
<75,9,2,6>,
<76,1,5,1>,
<76,1,5,3>,
<76,1,5,4>,
<76,1,5,6>,
<76,2,5,1>,
<76,2,5,3>,
<76,2,5,4>,
<76,2,5,6>,
<77,3,2,2>,
<77,3,2,5>,
<77,4,2,2>,
<77,4,2,5>,
<79,7,1,2>,
<79,7,1,5>,
<79,8,1,2>,
<79,8,1,5>,
<81,1,9,1>,
<81,1,9,3>,
<81,1,9,4>,
<81,1,9,6>,
<81,2,9,1>,
<81,2,9,3>,
<81,2,9,4>,
<81,2,9,6>,
<82,3,3,2>,
<82,3,3,5>,
<82,4,3,2>,
<82,4,3,5>,
<83,5,4,1>,
<83,5,4,3>,
<83,5,4,6>,
<83,6,4,1>,
<83,6,4,3>,
<83,6,4,6>,
<84,7,5,2>,
<84,7,5,5>,
<84,8,5,2>,
<84,8,5,5>,
<85,9,5,2>,
<85,9,5,3>,
<85,9,5,4>,
<85,9,5,6>,
<86,1,5,1>,
<86,1,5,3>,
<86,1,5,4>,
<86,1,5,6>,
<86,2,5,1>,
<86,2,5,3>,
<86,2,5,4>,
<86,2,5,6>,
<87,3,10,2>,
<87,3,10,5>,
<87,4,10,2>,
<87,4,10,5>,
<88,5,10,1>,
<88,5,10,3>,
<88,5,10,6>,
<88,6,10,1>,
<88,6,10,3>,
<88,6,10,6>,
<90,9,4,2>,
<90,9,4,3>,
<90,9,4,4>,
<90,9,4,6>,
<91,1,6,1>,
<91,1,6,3>,
<91,1,6,4>,
<91,1,6,6>,
<91,2,6,1>,
<91,2,6,3>,
<91,2,6,4>,
<91,2,6,6>,
<92,3,6,2>,
<92,3,6,5>,
<92,4,6,2>,
<92,4,6,5>,
<93,5,3,1>,
<93,5,3,3>,
<93,5,3,6>,
<93,6,3,1>,
<93,6,3,3>,
<93,6,3,6>,
<94,7,3,2>,
<94,7,3,5>,
<94,8,3,2>,
<94,8,3,5>,
<95,9,5,2>,
<95,9,5,3>,
<95,9,5,4>,
<95,9,5,6>,
<96,1,10,1>,
<96,1,10,3>,
<96,1,10,4>,
<96,1,10,6>,
<96,2,10,1>,
<96,2,10,3>,
<96,2,10,4>,
<96,2,10,6>,
<97,3,6,2>,
<97,3,6,5>,
<97,4,6,2>,
<97,4,6,5>
 };
